\ Model SMT_to_Gurobi
\ LP format - for model browsing. Use MPS format to capture full model detail.
Minimize
  0 w2_1_1 + 0 w2_1_2 + 0 w2_1_3 + 0 w2_1_4 + 0 b_out
Subject To
 R0: slack_1 >= 0
 R1: slack_2 >= 0
 R2: - 2 w1_1_1 - 2.33333333333333 w1_1_2 - 2 w1_1_3
   - 2.33333333333333 w1_1_4 - b1_1 + node_out_1_1 = 0
 R3: - 2 w1_2_1 - 2.33333333333333 w1_2_2 - 2 w1_2_3
   - 2.33333333333333 w1_2_4 - b1_2 + node_out_1_2 = 0
 R4: - 2 w1_3_1 - 2.33333333333333 w1_3_2 - 2 w1_3_3
   - 2.33333333333333 w1_3_4 - b1_3 + node_out_1_3 = 0
 R5: - 2 w1_4_1 - 2.33333333333333 w1_4_2 - 2 w1_4_3
   - 2.33333333333333 w1_4_4 - b1_4 + node_out_1_4 = 0
 R6: - 1.66666666666666 w1_1_1 - 0.666666666666666 w1_1_2
   - 1.66666666666666 w1_1_3 - b1_1 + node_out_1_1 = 0
 R7: - 1.66666666666666 w1_2_1 - 0.666666666666666 w1_2_2
   - 1.66666666666666 w1_2_3 - b1_2 + node_out_1_2 = 0
 R8: - 1.66666666666666 w1_3_1 - 0.666666666666666 w1_3_2
   - 1.66666666666666 w1_3_3 - b1_3 + node_out_1_3 = 0
 R9: - 1.66666666666666 w1_4_1 - 0.666666666666666 w1_4_2
   - 1.66666666666666 w1_4_3 - b1_4 + node_out_1_4 = 0
 R10: - slack_1 - slack_2 + total_slack = 0
Bounds
End
